data;

set A := 651094261 498849348 319218019 919973590 960349752 922047338 98265967 532926506 788019383 510006212 499473402 142405635 894669450 424588297 243001066 960596011 225667895 49679209 607348274 566544520 447065835 337728718 150473482 838861402 277568957 581886493 620468026 820211577 531099887 944295284 232418894 387167129 711305262 746680427 423168224 127541639;
param T := 9000000000;

end;
